\ Model Bosch Route Optimization
\ LP format - for model browsing. Use MPS format to capture full model detail.
Minimize
  0 X_ij[0.0,0.0,V1] + 0 X_ij[0.0,0.0,V2] + 16 X_ij[0.0,1.0,V1]
   + 16 X_ij[0.0,1.0,V2] + 48 X_ij[0.0,2.0,V1] + 48 X_ij[0.0,2.0,V2]
   + 40 X_ij[0.0,3.0,V1] + 40 X_ij[0.0,3.0,V2] + 20 X_ij[0.0,4.0,V1]
   + 20 X_ij[0.0,4.0,V2] + 32 X_ij[0.0,5.0,V1] + 32 X_ij[0.0,5.0,V2]
   + 16 X_ij[1.0,0.0,V1] + 16 X_ij[1.0,0.0,V2] + 0 X_ij[1.0,1.0,V1]
   + 0 X_ij[1.0,1.0,V2] + 49 X_ij[1.0,2.0,V1] + 49 X_ij[1.0,2.0,V2]
   + 30 X_ij[1.0,3.0,V1] + 30 X_ij[1.0,3.0,V2] + 25 X_ij[1.0,4.0,V1]
   + 25 X_ij[1.0,4.0,V2] + 28 X_ij[1.0,5.0,V1] + 28 X_ij[1.0,5.0,V2]
   + 48 X_ij[2.0,0.0,V1] + 48 X_ij[2.0,0.0,V2] + 49 X_ij[2.0,1.0,V1]
   + 49 X_ij[2.0,1.0,V2] + 0 X_ij[2.0,2.0,V1] + 0 X_ij[2.0,2.0,V2]
   + 34 X_ij[2.0,3.0,V1] + 34 X_ij[2.0,3.0,V2] + 28 X_ij[2.0,4.0,V1]
   + 28 X_ij[2.0,4.0,V2] + 22 X_ij[2.0,5.0,V1] + 22 X_ij[2.0,5.0,V2]
   + 40 X_ij[3.0,0.0,V1] + 40 X_ij[3.0,0.0,V2] + 30 X_ij[3.0,1.0,V1]
   + 30 X_ij[3.0,1.0,V2] + 34 X_ij[3.0,2.0,V1] + 34 X_ij[3.0,2.0,V2]
   + 0 X_ij[3.0,3.0,V1] + 0 X_ij[3.0,3.0,V2] + 29 X_ij[3.0,4.0,V1]
   + 29 X_ij[3.0,4.0,V2] + 16 X_ij[3.0,5.0,V1] + 16 X_ij[3.0,5.0,V2]
   + 20 X_ij[4.0,0.0,V1] + 20 X_ij[4.0,0.0,V2] + 25 X_ij[4.0,1.0,V1]
   + 25 X_ij[4.0,1.0,V2] + 28 X_ij[4.0,2.0,V1] + 28 X_ij[4.0,2.0,V2]
   + 29 X_ij[4.0,3.0,V1] + 29 X_ij[4.0,3.0,V2] + 0 X_ij[4.0,4.0,V1]
   + 0 X_ij[4.0,4.0,V2] + 16 X_ij[4.0,5.0,V1] + 16 X_ij[4.0,5.0,V2]
   + 32 X_ij[5.0,0.0,V1] + 32 X_ij[5.0,0.0,V2] + 28 X_ij[5.0,1.0,V1]
   + 28 X_ij[5.0,1.0,V2] + 22 X_ij[5.0,2.0,V1] + 22 X_ij[5.0,2.0,V2]
   + 16 X_ij[5.0,3.0,V1] + 16 X_ij[5.0,3.0,V2] + 16 X_ij[5.0,4.0,V1]
   + 16 X_ij[5.0,4.0,V2] + 0 X_ij[5.0,5.0,V1] + 0 X_ij[5.0,5.0,V2]
   + 0 U_i[0.0,V1] + 0 U_i[0.0,V2] + 0 U_i[1.0,V1] + 0 U_i[1.0,V2]
   + 0 U_i[2.0,V1] + 0 U_i[2.0,V2] + 0 U_i[3.0,V1] + 0 U_i[3.0,V2]
   + 0 U_i[4.0,V1] + 0 U_i[4.0,V2] + 0 U_i[5.0,V1] + 0 U_i[5.0,V2]
Subject To
 R0: X_ij[0.0,1.0,V1] + X_ij[0.0,2.0,V1] + X_ij[0.0,3.0,V1]
   + X_ij[0.0,4.0,V1] + X_ij[0.0,5.0,V1] - Z_ik[0.0,V1] = 0
 R1: X_ij[1.0,0.0,V1] + X_ij[2.0,0.0,V1] + X_ij[3.0,0.0,V1]
   + X_ij[4.0,0.0,V1] + X_ij[5.0,0.0,V1] - Z_ik[0.0,V1] = 0
 R2: X_ij[0.0,1.0,V2] + X_ij[0.0,2.0,V2] + X_ij[0.0,3.0,V2]
   + X_ij[0.0,4.0,V2] + X_ij[0.0,5.0,V2] - Z_ik[0.0,V2] = 0
 R3: X_ij[1.0,0.0,V2] + X_ij[2.0,0.0,V2] + X_ij[3.0,0.0,V2]
   + X_ij[4.0,0.0,V2] + X_ij[5.0,0.0,V2] - Z_ik[0.0,V2] = 0
 R4: X_ij[1.0,0.0,V1] + X_ij[1.0,2.0,V1] + X_ij[1.0,3.0,V1]
   + X_ij[1.0,4.0,V1] + X_ij[1.0,5.0,V1] - Z_ik[1.0,V1] = 0
 R5: X_ij[0.0,1.0,V1] + X_ij[2.0,1.0,V1] + X_ij[3.0,1.0,V1]
   + X_ij[4.0,1.0,V1] + X_ij[5.0,1.0,V1] - Z_ik[1.0,V1] = 0
 R6: X_ij[1.0,0.0,V2] + X_ij[1.0,2.0,V2] + X_ij[1.0,3.0,V2]
   + X_ij[1.0,4.0,V2] + X_ij[1.0,5.0,V2] - Z_ik[1.0,V2] = 0
 R7: X_ij[0.0,1.0,V2] + X_ij[2.0,1.0,V2] + X_ij[3.0,1.0,V2]
   + X_ij[4.0,1.0,V2] + X_ij[5.0,1.0,V2] - Z_ik[1.0,V2] = 0
 R8: X_ij[2.0,0.0,V1] + X_ij[2.0,1.0,V1] + X_ij[2.0,3.0,V1]
   + X_ij[2.0,4.0,V1] + X_ij[2.0,5.0,V1] - Z_ik[2.0,V1] = 0
 R9: X_ij[0.0,2.0,V1] + X_ij[1.0,2.0,V1] + X_ij[3.0,2.0,V1]
   + X_ij[4.0,2.0,V1] + X_ij[5.0,2.0,V1] - Z_ik[2.0,V1] = 0
 R10: X_ij[2.0,0.0,V2] + X_ij[2.0,1.0,V2] + X_ij[2.0,3.0,V2]
   + X_ij[2.0,4.0,V2] + X_ij[2.0,5.0,V2] - Z_ik[2.0,V2] = 0
 R11: X_ij[0.0,2.0,V2] + X_ij[1.0,2.0,V2] + X_ij[3.0,2.0,V2]
   + X_ij[4.0,2.0,V2] + X_ij[5.0,2.0,V2] - Z_ik[2.0,V2] = 0
 R12: X_ij[3.0,0.0,V1] + X_ij[3.0,1.0,V1] + X_ij[3.0,2.0,V1]
   + X_ij[3.0,4.0,V1] + X_ij[3.0,5.0,V1] - Z_ik[3.0,V1] = 0
 R13: X_ij[0.0,3.0,V1] + X_ij[1.0,3.0,V1] + X_ij[2.0,3.0,V1]
   + X_ij[4.0,3.0,V1] + X_ij[5.0,3.0,V1] - Z_ik[3.0,V1] = 0
 R14: X_ij[3.0,0.0,V2] + X_ij[3.0,1.0,V2] + X_ij[3.0,2.0,V2]
   + X_ij[3.0,4.0,V2] + X_ij[3.0,5.0,V2] - Z_ik[3.0,V2] = 0
 R15: X_ij[0.0,3.0,V2] + X_ij[1.0,3.0,V2] + X_ij[2.0,3.0,V2]
   + X_ij[4.0,3.0,V2] + X_ij[5.0,3.0,V2] - Z_ik[3.0,V2] = 0
 R16: X_ij[4.0,0.0,V1] + X_ij[4.0,1.0,V1] + X_ij[4.0,2.0,V1]
   + X_ij[4.0,3.0,V1] + X_ij[4.0,5.0,V1] - Z_ik[4.0,V1] = 0
 R17: X_ij[0.0,4.0,V1] + X_ij[1.0,4.0,V1] + X_ij[2.0,4.0,V1]
   + X_ij[3.0,4.0,V1] + X_ij[5.0,4.0,V1] - Z_ik[4.0,V1] = 0
 R18: X_ij[4.0,0.0,V2] + X_ij[4.0,1.0,V2] + X_ij[4.0,2.0,V2]
   + X_ij[4.0,3.0,V2] + X_ij[4.0,5.0,V2] - Z_ik[4.0,V2] = 0
 R19: X_ij[0.0,4.0,V2] + X_ij[1.0,4.0,V2] + X_ij[2.0,4.0,V2]
   + X_ij[3.0,4.0,V2] + X_ij[5.0,4.0,V2] - Z_ik[4.0,V2] = 0
 R20: X_ij[5.0,0.0,V1] + X_ij[5.0,1.0,V1] + X_ij[5.0,2.0,V1]
   + X_ij[5.0,3.0,V1] + X_ij[5.0,4.0,V1] - Z_ik[5.0,V1] = 0
 R21: X_ij[0.0,5.0,V1] + X_ij[1.0,5.0,V1] + X_ij[2.0,5.0,V1]
   + X_ij[3.0,5.0,V1] + X_ij[4.0,5.0,V1] - Z_ik[5.0,V1] = 0
 R22: X_ij[5.0,0.0,V2] + X_ij[5.0,1.0,V2] + X_ij[5.0,2.0,V2]
   + X_ij[5.0,3.0,V2] + X_ij[5.0,4.0,V2] - Z_ik[5.0,V2] = 0
 R23: X_ij[0.0,5.0,V2] + X_ij[1.0,5.0,V2] + X_ij[2.0,5.0,V2]
   + X_ij[3.0,5.0,V2] + X_ij[4.0,5.0,V2] - Z_ik[5.0,V2] = 0
Bounds
Binaries
 X_ij[0.0,0.0,V1] X_ij[0.0,0.0,V2] X_ij[0.0,1.0,V1] X_ij[0.0,1.0,V2]
 X_ij[0.0,2.0,V1] X_ij[0.0,2.0,V2] X_ij[0.0,3.0,V1] X_ij[0.0,3.0,V2]
 X_ij[0.0,4.0,V1] X_ij[0.0,4.0,V2] X_ij[0.0,5.0,V1] X_ij[0.0,5.0,V2]
 X_ij[1.0,0.0,V1] X_ij[1.0,0.0,V2] X_ij[1.0,1.0,V1] X_ij[1.0,1.0,V2]
 X_ij[1.0,2.0,V1] X_ij[1.0,2.0,V2] X_ij[1.0,3.0,V1] X_ij[1.0,3.0,V2]
 X_ij[1.0,4.0,V1] X_ij[1.0,4.0,V2] X_ij[1.0,5.0,V1] X_ij[1.0,5.0,V2]
 X_ij[2.0,0.0,V1] X_ij[2.0,0.0,V2] X_ij[2.0,1.0,V1] X_ij[2.0,1.0,V2]
 X_ij[2.0,2.0,V1] X_ij[2.0,2.0,V2] X_ij[2.0,3.0,V1] X_ij[2.0,3.0,V2]
 X_ij[2.0,4.0,V1] X_ij[2.0,4.0,V2] X_ij[2.0,5.0,V1] X_ij[2.0,5.0,V2]
 X_ij[3.0,0.0,V1] X_ij[3.0,0.0,V2] X_ij[3.0,1.0,V1] X_ij[3.0,1.0,V2]
 X_ij[3.0,2.0,V1] X_ij[3.0,2.0,V2] X_ij[3.0,3.0,V1] X_ij[3.0,3.0,V2]
 X_ij[3.0,4.0,V1] X_ij[3.0,4.0,V2] X_ij[3.0,5.0,V1] X_ij[3.0,5.0,V2]
 X_ij[4.0,0.0,V1] X_ij[4.0,0.0,V2] X_ij[4.0,1.0,V1] X_ij[4.0,1.0,V2]
 X_ij[4.0,2.0,V1] X_ij[4.0,2.0,V2] X_ij[4.0,3.0,V1] X_ij[4.0,3.0,V2]
 X_ij[4.0,4.0,V1] X_ij[4.0,4.0,V2] X_ij[4.0,5.0,V1] X_ij[4.0,5.0,V2]
 X_ij[5.0,0.0,V1] X_ij[5.0,0.0,V2] X_ij[5.0,1.0,V1] X_ij[5.0,1.0,V2]
 X_ij[5.0,2.0,V1] X_ij[5.0,2.0,V2] X_ij[5.0,3.0,V1] X_ij[5.0,3.0,V2]
 X_ij[5.0,4.0,V1] X_ij[5.0,4.0,V2] X_ij[5.0,5.0,V1] X_ij[5.0,5.0,V2]
Generals
 Z_ik[0.0,V1] Z_ik[0.0,V2] Z_ik[1.0,V1] Z_ik[1.0,V2] Z_ik[2.0,V1]
 Z_ik[2.0,V2] Z_ik[3.0,V1] Z_ik[3.0,V2] Z_ik[4.0,V1] Z_ik[4.0,V2]
 Z_ik[5.0,V1] Z_ik[5.0,V2]
End
